diamond
1.0
    3.56679000000000    0.00000000000000    0.00000000000000
    0.00000000000000    3.56679000000000    0.00000000000000
    0.00000000000000    0.00000000000000    3.56679000000000
C
8
Direct
    0.00000000000000    0.00000000000000    0.00000000000000
    0.00000000000000    0.50000000000000    0.50000000000000
    0.50000000000000    0.00000000000000    0.50000000000000
    0.50000000000000    0.50000000000000    0.00000000000000
    0.25000000000000    0.25000000000000    0.25000000000000
    0.25000000000000    0.75000000000000    0.75000000000000
    0.75000000000000    0.25000000000000    0.75000000000000
    0.75000000000000    0.75000000000000    0.25000000000000
