B2 C213
1.0
  10.7003699999999995    0.0000000000000000    0.0000000000000000
   0.0000000000000000   10.7003699999999995    0.0000000000000000
   0.0000000000000000    0.0000000000000000   10.7003699999999995
C B
213 2
direct
   0.0000000000000000    0.3333333333333333    0.0000000000000000 C
   0.0000000000000000    0.3333333333333333    0.3333333333333333 C
   0.0000000000000000    0.3333333333333333    0.6666666666666666 C
   0.0000000000000000    0.6666666666666666    0.0000000000000000 C
   0.0000000000000000    0.6666666666666666    0.3333333333333333 C
   0.0000000000000000    0.6666666666666666    0.6666666666666666 C
   0.3333333333333333    0.0000000000000000    0.0000000000000000 C
   0.3333333333333333    0.0000000000000000    0.3333333333333333 C
   0.3333333333333333    0.0000000000000000    0.6666666666666666 C
   0.3333333333333333    0.3333333333333333    0.0000000000000000 C
   0.3333333333333333    0.3333333333333333    0.3333333333333333 C
   0.3333333333333333    0.3333333333333333    0.6666666666666666 C
   0.3333333333333333    0.6666666666666666    0.0000000000000000 C
   0.3333333333333333    0.6666666666666666    0.3333333333333333 C
   0.3333333333333333    0.6666666666666666    0.6666666666666666 C
   0.6666666666666666    0.0000000000000000    0.0000000000000000 C
   0.6666666666666666    0.0000000000000000    0.3333333333333333 C
   0.6666666666666666    0.0000000000000000    0.6666666666666666 C
   0.6666666666666666    0.3333333333333333    0.0000000000000000 C
   0.6666666666666666    0.3333333333333333    0.3333333333333333 C
   0.6666666666666666    0.3333333333333333    0.6666666666666666 C
   0.6666666666666666    0.6666666666666666    0.0000000000000000 C
   0.6666666666666666    0.6666666666666666    0.3333333333333333 C
   0.6666666666666666    0.6666666666666666    0.6666666666666666 C
   0.1666666666666666    0.1666666666666666    0.0000000000000000 C
   0.1666666666666666    0.1666666666666666    0.3333333333333333 C
   0.1666666666666666    0.1666666666666666    0.6666666666666666 C
   0.1666666666666666    0.5000000000000000    0.0000000000000000 C
   0.1666666666666666    0.5000000000000000    0.3333333333333333 C
   0.1666666666666666    0.5000000000000000    0.6666666666666666 C
   0.1666666666666666    0.8333333333333333    0.0000000000000000 C
   0.1666666666666666    0.8333333333333333    0.3333333333333333 C
   0.1666666666666666    0.8333333333333333    0.6666666666666666 C
   0.5000000000000000    0.1666666666666666    0.0000000000000000 C
   0.5000000000000000    0.1666666666666666    0.3333333333333333 C
   0.5000000000000000    0.1666666666666666    0.6666666666666666 C
   0.5000000000000000    0.5000000000000000    0.0000000000000000 C
   0.5000000000000000    0.5000000000000000    0.3333333333333333 C
   0.5000000000000000    0.5000000000000000    0.6666666666666666 C
   0.5000000000000000    0.8333333333333333    0.0000000000000000 C
   0.5000000000000000    0.8333333333333333    0.3333333333333333 C
   0.5000000000000000    0.8333333333333333    0.6666666666666666 C
   0.8333333333333333    0.1666666666666666    0.0000000000000000 C
   0.8333333333333333    0.1666666666666666    0.3333333333333333 C
   0.8333333333333333    0.1666666666666666    0.6666666666666666 C
   0.8333333333333333    0.5000000000000000    0.0000000000000000 C
   0.8333333333333333    0.5000000000000000    0.3333333333333333 C
   0.8333333333333333    0.5000000000000000    0.6666666666666666 C
   0.8333333333333333    0.8333333333333333    0.0000000000000000 C
   0.8333333333333333    0.8333333333333333    0.3333333333333333 C
   0.8333333333333333    0.8333333333333333    0.6666666666666666 C
   0.1666666666666666    0.0000000000000000    0.1666666666666666 C
   0.1666666666666666    0.0000000000000000    0.5000000000000000 C
   0.1666666666666666    0.0000000000000000    0.8333333333333333 C
   0.1666666666666666    0.3333333333333333    0.1666666666666666 C
   0.1666666666666666    0.3333333333333333    0.5000000000000000 C
   0.1666666666666666    0.3333333333333333    0.8333333333333333 C
   0.1666666666666666    0.6666666666666666    0.1666666666666666 C
   0.1666666666666666    0.6666666666666666    0.5000000000000000 C
   0.1666666666666666    0.6666666666666666    0.8333333333333333 C
   0.5000000000000000    0.0000000000000000    0.1666666666666666 C
   0.5000000000000000    0.0000000000000000    0.5000000000000000 C
   0.5000000000000000    0.0000000000000000    0.8333333333333333 C
   0.5000000000000000    0.3333333333333333    0.1666666666666666 C
   0.5000000000000000    0.3333333333333333    0.5000000000000000 C
   0.5000000000000000    0.3333333333333333    0.8333333333333333 C
   0.5000000000000000    0.6666666666666666    0.1666666666666666 C
   0.5000000000000000    0.6666666666666666    0.5000000000000000 C
   0.5000000000000000    0.6666666666666666    0.8333333333333333 C
   0.8333333333333333    0.0000000000000000    0.1666666666666666 C
   0.8333333333333333    0.0000000000000000    0.5000000000000000 C
   0.8333333333333333    0.0000000000000000    0.8333333333333333 C
   0.8333333333333333    0.3333333333333333    0.1666666666666666 C
   0.8333333333333333    0.3333333333333333    0.5000000000000000 C
   0.8333333333333333    0.3333333333333333    0.8333333333333333 C
   0.8333333333333333    0.6666666666666666    0.1666666666666666 C
   0.8333333333333333    0.6666666666666666    0.5000000000000000 C
   0.8333333333333333    0.6666666666666666    0.8333333333333333 C
   0.0000000000000000    0.1666666666666666    0.1666666666666666 C
   0.0000000000000000    0.1666666666666666    0.5000000000000000 C
   0.0000000000000000    0.1666666666666666    0.8333333333333333 C
   0.0000000000000000    0.5000000000000000    0.1666666666666666 C
   0.0000000000000000    0.5000000000000000    0.5000000000000000 C
   0.0000000000000000    0.5000000000000000    0.8333333333333333 C
   0.0000000000000000    0.8333333333333333    0.1666666666666666 C
   0.0000000000000000    0.8333333333333333    0.5000000000000000 C
   0.0000000000000000    0.8333333333333333    0.8333333333333333 C
   0.3333333333333333    0.1666666666666666    0.1666666666666666 C
   0.3333333333333333    0.1666666666666666    0.5000000000000000 C
   0.3333333333333333    0.1666666666666666    0.8333333333333333 C
   0.3333333333333333    0.5000000000000000    0.1666666666666666 C
   0.3333333333333333    0.5000000000000000    0.5000000000000000 C
   0.3333333333333333    0.5000000000000000    0.8333333333333333 C
   0.3333333333333333    0.8333333333333333    0.1666666666666666 C
   0.3333333333333333    0.8333333333333333    0.5000000000000000 C
   0.3333333333333333    0.8333333333333333    0.8333333333333333 C
   0.6666666666666666    0.1666666666666666    0.1666666666666666 C
   0.6666666666666666    0.1666666666666666    0.5000000000000000 C
   0.6666666666666666    0.1666666666666666    0.8333333333333333 C
   0.6666666666666666    0.5000000000000000    0.1666666666666666 C
   0.6666666666666666    0.5000000000000000    0.5000000000000000 C
   0.6666666666666666    0.5000000000000000    0.8333333333333333 C
   0.6666666666666666    0.8333333333333333    0.1666666666666666 C
   0.6666666666666666    0.8333333333333333    0.5000000000000000 C
   0.6666666666666666    0.8333333333333333    0.8333333333333333 C
   0.0833333333333333    0.0833333333333333    0.0833333333333333 C
   0.0833333333333333    0.0833333333333333    0.4166666666666666 C
   0.0833333333333333    0.0833333333333333    0.7500000000000000 C
   0.0833333333333333    0.4166666666666666    0.0833333333333333 C
   0.0833333333333333    0.4166666666666666    0.4166666666666666 C
   0.0833333333333333    0.4166666666666666    0.7500000000000000 C
   0.0833333333333333    0.7500000000000000    0.0833333333333333 C
   0.0833333333333333    0.7500000000000000    0.4166666666666666 C
   0.0833333333333333    0.7500000000000000    0.7500000000000000 C
   0.4166666666666666    0.0833333333333333    0.0833333333333333 C
   0.4166666666666666    0.0833333333333333    0.4166666666666666 C
   0.4166666666666666    0.0833333333333333    0.7500000000000000 C
   0.4166666666666666    0.4166666666666666    0.0833333333333333 C
   0.4166666666666666    0.4166666666666666    0.4166666666666666 C
   0.4166666666666666    0.4166666666666666    0.7500000000000000 C
   0.4166666666666666    0.7500000000000000    0.0833333333333333 C
   0.4166666666666666    0.7500000000000000    0.4166666666666666 C
   0.4166666666666666    0.7500000000000000    0.7500000000000000 C
   0.7500000000000000    0.0833333333333333    0.0833333333333333 C
   0.7500000000000000    0.0833333333333333    0.4166666666666666 C
   0.7500000000000000    0.0833333333333333    0.7500000000000000 C
   0.7500000000000000    0.4166666666666666    0.0833333333333333 C
   0.7500000000000000    0.4166666666666666    0.4166666666666666 C
   0.7500000000000000    0.4166666666666666    0.7500000000000000 C
   0.7500000000000000    0.7500000000000000    0.0833333333333333 C
   0.7500000000000000    0.7500000000000000    0.4166666666666666 C
   0.7500000000000000    0.7500000000000000    0.7500000000000000 C
   0.2500000000000000    0.2500000000000000    0.0833333333333333 C
   0.2500000000000000    0.2500000000000000    0.4166666666666666 C
   0.2500000000000000    0.2500000000000000    0.7500000000000000 C
   0.2500000000000000    0.5833333333333333    0.0833333333333333 C
   0.2500000000000000    0.5833333333333333    0.4166666666666666 C
   0.2500000000000000    0.5833333333333333    0.7500000000000000 C
   0.2500000000000000    0.9166666666666667    0.0833333333333333 C
   0.2500000000000000    0.9166666666666667    0.4166666666666666 C
   0.2500000000000000    0.9166666666666667    0.7500000000000000 C
   0.5833333333333333    0.2500000000000000    0.0833333333333333 C
   0.5833333333333333    0.2500000000000000    0.4166666666666666 C
   0.5833333333333333    0.2500000000000000    0.7500000000000000 C
   0.5833333333333333    0.5833333333333333    0.0833333333333333 C
   0.5833333333333333    0.5833333333333333    0.4166666666666666 C
   0.5833333333333333    0.5833333333333333    0.7500000000000000 C
   0.5833333333333333    0.9166666666666667    0.0833333333333333 C
   0.5833333333333333    0.9166666666666667    0.4166666666666666 C
   0.5833333333333333    0.9166666666666667    0.7500000000000000 C
   0.9166666666666667    0.2500000000000000    0.0833333333333333 C
   0.9166666666666667    0.2500000000000000    0.4166666666666666 C
   0.9166666666666667    0.2500000000000000    0.7500000000000000 C
   0.9166666666666667    0.5833333333333333    0.0833333333333333 C
   0.9166666666666667    0.5833333333333333    0.4166666666666666 C
   0.9166666666666667    0.5833333333333333    0.7500000000000000 C
   0.9166666666666667    0.9166666666666667    0.0833333333333333 C
   0.9166666666666667    0.9166666666666667    0.4166666666666666 C
   0.9166666666666667    0.9166666666666667    0.7500000000000000 C
   0.2500000000000000    0.0833333333333333    0.2500000000000000 C
   0.2500000000000000    0.0833333333333333    0.5833333333333333 C
   0.2500000000000000    0.0833333333333333    0.9166666666666667 C
   0.2500000000000000    0.4166666666666666    0.2500000000000000 C
   0.2500000000000000    0.4166666666666666    0.5833333333333333 C
   0.2500000000000000    0.4166666666666666    0.9166666666666667 C
   0.2500000000000000    0.7500000000000000    0.2500000000000000 C
   0.2500000000000000    0.7500000000000000    0.5833333333333333 C
   0.2500000000000000    0.7500000000000000    0.9166666666666667 C
   0.5833333333333333    0.0833333333333333    0.2500000000000000 C
   0.5833333333333333    0.0833333333333333    0.5833333333333333 C
   0.5833333333333333    0.0833333333333333    0.9166666666666667 C
   0.5833333333333333    0.4166666666666666    0.2500000000000000 C
   0.5833333333333333    0.4166666666666666    0.5833333333333333 C
   0.5833333333333333    0.4166666666666666    0.9166666666666667 C
   0.5833333333333333    0.7500000000000000    0.2500000000000000 C
   0.5833333333333333    0.7500000000000000    0.5833333333333333 C
   0.5833333333333333    0.7500000000000000    0.9166666666666667 C
   0.9166666666666667    0.0833333333333333    0.2500000000000000 C
   0.9166666666666667    0.0833333333333333    0.5833333333333333 C
   0.9166666666666667    0.0833333333333333    0.9166666666666667 C
   0.9166666666666667    0.4166666666666666    0.2500000000000000 C
   0.9166666666666667    0.4166666666666666    0.5833333333333333 C
   0.9166666666666667    0.4166666666666666    0.9166666666666667 C
   0.9166666666666667    0.7500000000000000    0.2500000000000000 C
   0.9166666666666667    0.7500000000000000    0.5833333333333333 C
   0.9166666666666667    0.7500000000000000    0.9166666666666667 C
   0.0833333333333333    0.2500000000000000    0.2500000000000000 C
   0.0833333333333333    0.2500000000000000    0.5833333333333333 C
   0.0833333333333333    0.2500000000000000    0.9166666666666667 C
   0.0833333333333333    0.5833333333333333    0.2500000000000000 C
   0.0833333333333333    0.5833333333333333    0.5833333333333333 C
   0.0833333333333333    0.5833333333333333    0.9166666666666667 C
   0.0833333333333333    0.9166666666666667    0.2500000000000000 C
   0.0833333333333333    0.9166666666666667    0.5833333333333333 C
   0.0833333333333333    0.9166666666666667    0.9166666666666667 C
   0.4166666666666666    0.2500000000000000    0.2500000000000000 C
   0.4166666666666666    0.2500000000000000    0.5833333333333333 C
   0.4166666666666666    0.2500000000000000    0.9166666666666667 C
   0.4166666666666666    0.5833333333333333    0.2500000000000000 C
   0.4166666666666666    0.5833333333333333    0.5833333333333333 C
   0.4166666666666666    0.5833333333333333    0.9166666666666667 C
   0.4166666666666666    0.9166666666666667    0.2500000000000000 C
   0.4166666666666666    0.9166666666666667    0.5833333333333333 C
   0.4166666666666666    0.9166666666666667    0.9166666666666667 C
   0.7500000000000000    0.2500000000000000    0.2500000000000000 C
   0.7500000000000000    0.2500000000000000    0.5833333333333333 C
   0.7500000000000000    0.2500000000000000    0.9166666666666667 C
   0.7500000000000000    0.5833333333333333    0.2500000000000000 C
   0.7500000000000000    0.5833333333333333    0.5833333333333333 C
   0.7500000000000000    0.5833333333333333    0.9166666666666667 C
   0.7500000000000000    0.9166666666666667    0.2500000000000000 C
   0.7500000000000000    0.9166666666666667    0.5833333333333333 C
   0.7500000000000000    0.9166666666666667    0.9166666666666667 C
   0.0000000000000000    0.0000000000000000    0.6666666666666666 B
   0.0000000000000000    0.0000000000000000    0.3333333333333333 B
