Mg65 Al128 O255
1.0
  16.2115364500000005    0.0000000000000000    0.0000000000000000
   0.0000000000000000   16.2115364500000005    0.0000000000000000
   0.0000000000000000    0.0000000000000000   16.2115364500000005
Mg Al O
65 128 255
direct
   0.3125000000000000    0.1875000000000000    0.1875000000000000 Mg
   0.1250000000000000    0.1250000000000000    0.1250000000000000 Mg
   0.1250000000000000    0.1250000000000000    0.6250000000000000 Mg
   0.1250000000000000    0.6250000000000000    0.1250000000000000 Mg
   0.1250000000000000    0.6250000000000000    0.6250000000000000 Mg
   0.6250000000000000    0.1250000000000000    0.1250000000000000 Mg
   0.6250000000000000    0.1250000000000000    0.6250000000000000 Mg
   0.6250000000000000    0.6250000000000000    0.1250000000000000 Mg
   0.6250000000000000    0.6250000000000000    0.6250000000000000 Mg
   0.3750000000000000    0.3750000000000000    0.1250000000000000 Mg
   0.3750000000000000    0.3750000000000000    0.6250000000000000 Mg
   0.3750000000000000    0.8750000000000000    0.1250000000000000 Mg
   0.3750000000000000    0.8750000000000000    0.6250000000000000 Mg
   0.8750000000000000    0.3750000000000000    0.1250000000000000 Mg
   0.8750000000000000    0.3750000000000000    0.6250000000000000 Mg
   0.8750000000000000    0.8750000000000000    0.1250000000000000 Mg
   0.8750000000000000    0.8750000000000000    0.6250000000000000 Mg
   0.3750000000000000    0.1250000000000000    0.3750000000000000 Mg
   0.3750000000000000    0.1250000000000000    0.8750000000000000 Mg
   0.3750000000000000    0.6250000000000000    0.3750000000000000 Mg
   0.3750000000000000    0.6250000000000000    0.8750000000000000 Mg
   0.8750000000000000    0.1250000000000000    0.3750000000000000 Mg
   0.8750000000000000    0.1250000000000000    0.8750000000000000 Mg
   0.8750000000000000    0.6250000000000000    0.3750000000000000 Mg
   0.8750000000000000    0.6250000000000000    0.8750000000000000 Mg
   0.1250000000000000    0.3750000000000000    0.3750000000000000 Mg
   0.1250000000000000    0.3750000000000000    0.8750000000000000 Mg
   0.1250000000000000    0.8750000000000000    0.3750000000000000 Mg
   0.1250000000000000    0.8750000000000000    0.8750000000000000 Mg
   0.6250000000000000    0.3750000000000000    0.3750000000000000 Mg
   0.6250000000000000    0.3750000000000000    0.8750000000000000 Mg
   0.6250000000000000    0.8750000000000000    0.3750000000000000 Mg
   0.6250000000000000    0.8750000000000000    0.8750000000000000 Mg
   0.0000000000000000    0.0000000000000000    0.0000000000000000 Mg
   0.0000000000000000    0.0000000000000000    0.5000000000000000 Mg
   0.0000000000000000    0.5000000000000000    0.0000000000000000 Mg
   0.0000000000000000    0.5000000000000000    0.5000000000000000 Mg
   0.5000000000000000    0.0000000000000000    0.0000000000000000 Mg
   0.5000000000000000    0.0000000000000000    0.5000000000000000 Mg
   0.5000000000000000    0.5000000000000000    0.0000000000000000 Mg
   0.5000000000000000    0.5000000000000000    0.5000000000000000 Mg
   0.2500000000000000    0.2500000000000000    0.0000000000000000 Mg
   0.2500000000000000    0.2500000000000000    0.5000000000000000 Mg
   0.2500000000000000    0.7500000000000000    0.0000000000000000 Mg
   0.2500000000000000    0.7500000000000000    0.5000000000000000 Mg
   0.7500000000000000    0.2500000000000000    0.0000000000000000 Mg
   0.7500000000000000    0.2500000000000000    0.5000000000000000 Mg
   0.7500000000000000    0.7500000000000000    0.0000000000000000 Mg
   0.7500000000000000    0.7500000000000000    0.5000000000000000 Mg
   0.2500000000000000    0.0000000000000000    0.2500000000000000 Mg
   0.2500000000000000    0.0000000000000000    0.7500000000000000 Mg
   0.2500000000000000    0.5000000000000000    0.2500000000000000 Mg
   0.2500000000000000    0.5000000000000000    0.7500000000000000 Mg
   0.7500000000000000    0.0000000000000000    0.2500000000000000 Mg
   0.7500000000000000    0.0000000000000000    0.7500000000000000 Mg
   0.7500000000000000    0.5000000000000000    0.2500000000000000 Mg
   0.7500000000000000    0.5000000000000000    0.7500000000000000 Mg
   0.0000000000000000    0.2500000000000000    0.2500000000000000 Mg
   0.0000000000000000    0.2500000000000000    0.7500000000000000 Mg
   0.0000000000000000    0.7500000000000000    0.2500000000000000 Mg
   0.0000000000000000    0.7500000000000000    0.7500000000000000 Mg
   0.5000000000000000    0.2500000000000000    0.2500000000000000 Mg
   0.5000000000000000    0.2500000000000000    0.7500000000000000 Mg
   0.5000000000000000    0.7500000000000000    0.2500000000000000 Mg
   0.5000000000000000    0.7500000000000000    0.7500000000000000 Mg
   0.4307435808000014    0.1807435808000015    0.1807435808000015 Al
   0.3125000000000000    0.1875000000000000    0.6875000000000000 Al
   0.3125000000000000    0.6875000000000000    0.1875000000000000 Al
   0.3125000000000000    0.6875000000000000    0.6875000000000000 Al
   0.8125000000000000    0.1875000000000000    0.1875000000000000 Al
   0.8125000000000000    0.1875000000000000    0.6875000000000000 Al
   0.8125000000000000    0.6875000000000000    0.1875000000000000 Al
   0.8125000000000000    0.6875000000000000    0.6875000000000000 Al
   0.0625000000000000    0.4375000000000000    0.1875000000000000 Al
   0.0625000000000000    0.4375000000000000    0.6875000000000000 Al
   0.0625000000000000    0.9375000000000000    0.1875000000000000 Al
   0.0625000000000000    0.9375000000000000    0.6875000000000000 Al
   0.5625000000000000    0.4375000000000000    0.1875000000000000 Al
   0.5625000000000000    0.4375000000000000    0.6875000000000000 Al
   0.5625000000000000    0.9375000000000000    0.1875000000000000 Al
   0.5625000000000000    0.9375000000000000    0.6875000000000000 Al
   0.0625000000000000    0.1875000000000000    0.4375000000000000 Al
   0.0625000000000000    0.1875000000000000    0.9375000000000000 Al
   0.0625000000000000    0.6875000000000000    0.4375000000000000 Al
   0.0625000000000000    0.6875000000000000    0.9375000000000000 Al
   0.5625000000000000    0.1875000000000000    0.4375000000000000 Al
   0.5625000000000000    0.1875000000000000    0.9375000000000000 Al
   0.5625000000000000    0.6875000000000000    0.4375000000000000 Al
   0.5625000000000000    0.6875000000000000    0.9375000000000000 Al
   0.3125000000000000    0.4375000000000000    0.4375000000000000 Al
   0.3125000000000000    0.4375000000000000    0.9375000000000000 Al
   0.3125000000000000    0.9375000000000000    0.4375000000000000 Al
   0.3125000000000000    0.9375000000000000    0.9375000000000000 Al
   0.8125000000000000    0.4375000000000000    0.4375000000000000 Al
   0.8125000000000000    0.4375000000000000    0.9375000000000000 Al
   0.8125000000000000    0.9375000000000000    0.4375000000000000 Al
   0.8125000000000000    0.9375000000000000    0.9375000000000000 Al
   0.3125000000000000    0.3125000000000000    0.3125000000000000 Al
   0.3125000000000000    0.3125000000000000    0.8125000000000000 Al
   0.3125000000000000    0.8125000000000000    0.3125000000000000 Al
   0.3125000000000000    0.8125000000000000    0.8125000000000000 Al
   0.8125000000000000    0.3125000000000000    0.3125000000000000 Al
   0.8125000000000000    0.3125000000000000    0.8125000000000000 Al
   0.8125000000000000    0.8125000000000000    0.3125000000000000 Al
   0.8125000000000000    0.8125000000000000    0.8125000000000000 Al
   0.0625000000000000    0.0625000000000000    0.3125000000000000 Al
   0.0625000000000000    0.0625000000000000    0.8125000000000000 Al
   0.0625000000000000    0.5625000000000000    0.3125000000000000 Al
   0.0625000000000000    0.5625000000000000    0.8125000000000000 Al
   0.5625000000000000    0.0625000000000000    0.3125000000000000 Al
   0.5625000000000000    0.0625000000000000    0.8125000000000000 Al
   0.5625000000000000    0.5625000000000000    0.3125000000000000 Al
   0.5625000000000000    0.5625000000000000    0.8125000000000000 Al
   0.0625000000000000    0.3125000000000000    0.0625000000000000 Al
   0.0625000000000000    0.3125000000000000    0.5625000000000000 Al
   0.0625000000000000    0.8125000000000000    0.0625000000000000 Al
   0.0625000000000000    0.8125000000000000    0.5625000000000000 Al
   0.5625000000000000    0.3125000000000000    0.0625000000000000 Al
   0.5625000000000000    0.3125000000000000    0.5625000000000000 Al
   0.5625000000000000    0.8125000000000000    0.0625000000000000 Al
   0.5625000000000000    0.8125000000000000    0.5625000000000000 Al
   0.3125000000000000    0.0625000000000000    0.0625000000000000 Al
   0.3125000000000000    0.0625000000000000    0.5625000000000000 Al
   0.3125000000000000    0.5625000000000000    0.0625000000000000 Al
   0.3125000000000000    0.5625000000000000    0.5625000000000000 Al
   0.8125000000000000    0.0625000000000000    0.0625000000000000 Al
   0.8125000000000000    0.0625000000000000    0.5625000000000000 Al
   0.8125000000000000    0.5625000000000000    0.0625000000000000 Al
   0.8125000000000000    0.5625000000000000    0.5625000000000000 Al
   0.1875000000000000    0.3125000000000000    0.1874999999999999 Al
   0.1875000000000000    0.3125000000000000    0.6874999999999999 Al
   0.1875000000000000    0.8125000000000000    0.1874999999999999 Al
   0.1875000000000000    0.8125000000000000    0.6874999999999999 Al
   0.6875000000000000    0.3125000000000000    0.1874999999999999 Al
   0.6875000000000000    0.3125000000000000    0.6874999999999999 Al
   0.6875000000000000    0.8125000000000000    0.1874999999999999 Al
   0.6875000000000000    0.8125000000000000    0.6874999999999999 Al
   0.4375000000000000    0.0625000000000000    0.1874999999999999 Al
   0.4375000000000000    0.0625000000000000    0.6874999999999999 Al
   0.4375000000000000    0.5625000000000000    0.1874999999999999 Al
   0.4375000000000000    0.5625000000000000    0.6874999999999999 Al
   0.9375000000000000    0.0625000000000000    0.1874999999999999 Al
   0.9375000000000000    0.0625000000000000    0.6874999999999999 Al
   0.9375000000000000    0.5625000000000000    0.1874999999999999 Al
   0.9375000000000000    0.5625000000000000    0.6874999999999999 Al
   0.4375000000000000    0.3125000000000000    0.4374999999999999 Al
   0.4375000000000000    0.3125000000000000    0.9374999999999999 Al
   0.4375000000000000    0.8125000000000000    0.4374999999999999 Al
   0.4375000000000000    0.8125000000000000    0.9374999999999999 Al
   0.9375000000000000    0.3125000000000000    0.4374999999999999 Al
   0.9375000000000000    0.3125000000000000    0.9374999999999999 Al
   0.9375000000000000    0.8125000000000000    0.4374999999999999 Al
   0.9375000000000000    0.8125000000000000    0.9374999999999999 Al
   0.1875000000000000    0.0625000000000000    0.4374999999999999 Al
   0.1875000000000000    0.0625000000000000    0.9374999999999999 Al
   0.1875000000000000    0.5625000000000000    0.4374999999999999 Al
   0.1875000000000000    0.5625000000000000    0.9374999999999999 Al
   0.6875000000000000    0.0625000000000000    0.4374999999999999 Al
   0.6875000000000000    0.0625000000000000    0.9374999999999999 Al
   0.6875000000000000    0.5625000000000000    0.4374999999999999 Al
   0.6875000000000000    0.5625000000000000    0.9374999999999999 Al
   0.1874999999999999    0.1874999999999999    0.3125000000000000 Al
   0.1874999999999999    0.1874999999999999    0.8125000000000000 Al
   0.1874999999999999    0.6874999999999999    0.3125000000000000 Al
   0.1874999999999999    0.6874999999999999    0.8125000000000000 Al
   0.6874999999999999    0.1874999999999999    0.3125000000000000 Al
   0.6874999999999999    0.1874999999999999    0.8125000000000000 Al
   0.6874999999999999    0.6874999999999999    0.3125000000000000 Al
   0.6874999999999999    0.6874999999999999    0.8125000000000000 Al
   0.4374999999999999    0.4374999999999999    0.3125000000000000 Al
   0.4374999999999999    0.4374999999999999    0.8125000000000000 Al
   0.4374999999999999    0.9374999999999999    0.3125000000000000 Al
   0.4374999999999999    0.9374999999999999    0.8125000000000000 Al
   0.9374999999999999    0.4374999999999999    0.3125000000000000 Al
   0.9374999999999999    0.4374999999999999    0.8125000000000000 Al
   0.9374999999999999    0.9374999999999999    0.3125000000000000 Al
   0.9374999999999999    0.9374999999999999    0.8125000000000000 Al
   0.4374999999999999    0.1874999999999999    0.0625000000000000 Al
   0.4374999999999999    0.1874999999999999    0.5625000000000000 Al
   0.4374999999999999    0.6874999999999999    0.0625000000000000 Al
   0.4374999999999999    0.6874999999999999    0.5625000000000000 Al
   0.9374999999999999    0.1874999999999999    0.0625000000000000 Al
   0.9374999999999999    0.1874999999999999    0.5625000000000000 Al
   0.9374999999999999    0.6874999999999999    0.0625000000000000 Al
   0.9374999999999999    0.6874999999999999    0.5625000000000000 Al
   0.1874999999999999    0.4374999999999999    0.0625000000000000 Al
   0.1874999999999999    0.4374999999999999    0.5625000000000000 Al
   0.1874999999999999    0.9374999999999999    0.0625000000000000 Al
   0.1874999999999999    0.9374999999999999    0.5625000000000000 Al
   0.6874999999999999    0.4374999999999999    0.0625000000000000 Al
   0.6874999999999999    0.4374999999999999    0.5625000000000000 Al
   0.6874999999999999    0.9374999999999999    0.0625000000000000 Al
   0.6874999999999999    0.9374999999999999    0.5625000000000000 Al
   0.4307435808000014    0.4307435808000014    0.4307435808000014 O
   0.4307435808000014    0.4307435808000014    0.9307435808000014 O
   0.4307435808000014    0.9307435808000014    0.4307435808000014 O
   0.4307435808000014    0.9307435808000014    0.9307435808000014 O
   0.9307435808000014    0.4307435808000014    0.4307435808000014 O
   0.9307435808000014    0.4307435808000014    0.9307435808000014 O
   0.9307435808000014    0.9307435808000014    0.4307435808000014 O
   0.9307435808000014    0.9307435808000014    0.9307435808000014 O
   0.1807435808000015    0.1807435808000015    0.4307435808000014 O
   0.1807435808000015    0.1807435808000015    0.9307435808000014 O
   0.1807435808000015    0.6807435808000015    0.4307435808000014 O
   0.1807435808000015    0.6807435808000015    0.9307435808000014 O
   0.6807435808000015    0.1807435808000015    0.4307435808000014 O
   0.6807435808000015    0.1807435808000015    0.9307435808000014 O
   0.6807435808000015    0.6807435808000015    0.4307435808000014 O
   0.6807435808000015    0.6807435808000015    0.9307435808000014 O
   0.1807435808000015    0.4307435808000014    0.1807435808000015 O
   0.1807435808000015    0.4307435808000014    0.6807435808000015 O
   0.1807435808000015    0.9307435808000014    0.1807435808000015 O
   0.1807435808000015    0.9307435808000014    0.6807435808000015 O
   0.6807435808000015    0.4307435808000014    0.1807435808000015 O
   0.6807435808000015    0.4307435808000014    0.6807435808000015 O
   0.6807435808000015    0.9307435808000014    0.1807435808000015 O
   0.6807435808000015    0.9307435808000014    0.6807435808000015 O
   0.4307435808000014    0.1807435808000015    0.6807435808000015 O
   0.4307435808000014    0.6807435808000015    0.1807435808000015 O
   0.4307435808000014    0.6807435808000015    0.6807435808000015 O
   0.9307435808000014    0.1807435808000015    0.1807435808000015 O
   0.9307435808000014    0.1807435808000015    0.6807435808000015 O
   0.9307435808000014    0.6807435808000015    0.1807435808000015 O
   0.9307435808000014    0.6807435808000015    0.6807435808000015 O
   0.1942564191999985    0.3057435808000015    0.3057435808000015 O
   0.1942564191999985    0.3057435808000015    0.8057435808000015 O
   0.1942564191999985    0.8057435808000015    0.3057435808000015 O
   0.1942564191999985    0.8057435808000015    0.8057435808000015 O
   0.6942564191999985    0.3057435808000015    0.3057435808000015 O
   0.6942564191999985    0.3057435808000015    0.8057435808000015 O
   0.6942564191999985    0.8057435808000015    0.3057435808000015 O
   0.6942564191999985    0.8057435808000015    0.8057435808000015 O
   0.4442564191999985    0.0557435808000014    0.3057435808000015 O
   0.4442564191999985    0.0557435808000014    0.8057435808000015 O
   0.4442564191999985    0.5557435808000013    0.3057435808000015 O
   0.4442564191999985    0.5557435808000013    0.8057435808000015 O
   0.9442564191999984    0.0557435808000014    0.3057435808000015 O
   0.9442564191999984    0.0557435808000014    0.8057435808000015 O
   0.9442564191999984    0.5557435808000013    0.3057435808000015 O
   0.9442564191999984    0.5557435808000013    0.8057435808000015 O
   0.4442564191999985    0.3057435808000015    0.0557435808000014 O
   0.4442564191999985    0.3057435808000015    0.5557435808000013 O
   0.4442564191999985    0.8057435808000015    0.0557435808000014 O
   0.4442564191999985    0.8057435808000015    0.5557435808000013 O
   0.9442564191999984    0.3057435808000015    0.0557435808000014 O
   0.9442564191999984    0.3057435808000015    0.5557435808000013 O
   0.9442564191999984    0.8057435808000015    0.0557435808000014 O
   0.9442564191999984    0.8057435808000015    0.5557435808000013 O
   0.1942564191999985    0.0557435808000014    0.0557435808000014 O
   0.1942564191999985    0.0557435808000014    0.5557435808000013 O
   0.1942564191999985    0.5557435808000013    0.0557435808000014 O
   0.1942564191999985    0.5557435808000013    0.5557435808000013 O
   0.6942564191999985    0.0557435808000014    0.0557435808000014 O
   0.6942564191999985    0.0557435808000014    0.5557435808000013 O
   0.6942564191999985    0.5557435808000013    0.0557435808000014 O
   0.6942564191999985    0.5557435808000013    0.5557435808000013 O
   0.3057435808000015    0.3057435808000015    0.1942564191999985 O
   0.3057435808000015    0.3057435808000015    0.6942564191999985 O
   0.3057435808000015    0.8057435808000015    0.1942564191999985 O
   0.3057435808000015    0.8057435808000015    0.6942564191999985 O
   0.8057435808000015    0.3057435808000015    0.1942564191999985 O
   0.8057435808000015    0.3057435808000015    0.6942564191999985 O
   0.8057435808000015    0.8057435808000015    0.1942564191999985 O
   0.8057435808000015    0.8057435808000015    0.6942564191999985 O
   0.0557435808000014    0.0557435808000014    0.1942564191999985 O
   0.0557435808000014    0.0557435808000014    0.6942564191999985 O
   0.0557435808000014    0.5557435808000013    0.1942564191999985 O
   0.0557435808000014    0.5557435808000013    0.6942564191999985 O
   0.5557435808000013    0.0557435808000014    0.1942564191999985 O
   0.5557435808000013    0.0557435808000014    0.6942564191999985 O
   0.5557435808000013    0.5557435808000013    0.1942564191999985 O
   0.5557435808000013    0.5557435808000013    0.6942564191999985 O
   0.0557435808000014    0.3057435808000015    0.4442564191999985 O
   0.0557435808000014    0.3057435808000015    0.9442564191999984 O
   0.0557435808000014    0.8057435808000015    0.4442564191999985 O
   0.0557435808000014    0.8057435808000015    0.9442564191999984 O
   0.5557435808000013    0.3057435808000015    0.4442564191999985 O
   0.5557435808000013    0.3057435808000015    0.9442564191999984 O
   0.5557435808000013    0.8057435808000015    0.4442564191999985 O
   0.5557435808000013    0.8057435808000015    0.9442564191999984 O
   0.3057435808000015    0.0557435808000014    0.4442564191999985 O
   0.3057435808000015    0.0557435808000014    0.9442564191999984 O
   0.3057435808000015    0.5557435808000013    0.4442564191999985 O
   0.3057435808000015    0.5557435808000013    0.9442564191999984 O
   0.8057435808000015    0.0557435808000014    0.4442564191999985 O
   0.8057435808000015    0.0557435808000014    0.9442564191999984 O
   0.8057435808000015    0.5557435808000013    0.4442564191999985 O
   0.8057435808000015    0.5557435808000013    0.9442564191999984 O
   0.3057435808000015    0.1942564191999985    0.3057435808000015 O
   0.3057435808000015    0.1942564191999985    0.8057435808000015 O
   0.3057435808000015    0.6942564191999985    0.3057435808000015 O
   0.3057435808000015    0.6942564191999985    0.8057435808000015 O
   0.8057435808000015    0.1942564191999985    0.3057435808000015 O
   0.8057435808000015    0.1942564191999985    0.8057435808000015 O
   0.8057435808000015    0.6942564191999985    0.3057435808000015 O
   0.8057435808000015    0.6942564191999985    0.8057435808000015 O
   0.0557435808000014    0.4442564191999985    0.3057435808000015 O
   0.0557435808000014    0.4442564191999985    0.8057435808000015 O
   0.0557435808000014    0.9442564191999984    0.3057435808000015 O
   0.0557435808000014    0.9442564191999984    0.8057435808000015 O
   0.5557435808000013    0.4442564191999985    0.3057435808000015 O
   0.5557435808000013    0.4442564191999985    0.8057435808000015 O
   0.5557435808000013    0.9442564191999984    0.3057435808000015 O
   0.5557435808000013    0.9442564191999984    0.8057435808000015 O
   0.0557435808000014    0.1942564191999985    0.0557435808000014 O
   0.0557435808000014    0.1942564191999985    0.5557435808000013 O
   0.0557435808000014    0.6942564191999985    0.0557435808000014 O
   0.0557435808000014    0.6942564191999985    0.5557435808000013 O
   0.5557435808000013    0.1942564191999985    0.0557435808000014 O
   0.5557435808000013    0.1942564191999985    0.5557435808000013 O
   0.5557435808000013    0.6942564191999985    0.0557435808000014 O
   0.5557435808000013    0.6942564191999985    0.5557435808000013 O
   0.3057435808000015    0.4442564191999985    0.0557435808000014 O
   0.3057435808000015    0.4442564191999985    0.5557435808000013 O
   0.3057435808000015    0.9442564191999984    0.0557435808000014 O
   0.3057435808000015    0.9442564191999984    0.5557435808000013 O
   0.8057435808000015    0.4442564191999985    0.0557435808000014 O
   0.8057435808000015    0.4442564191999985    0.5557435808000013 O
   0.8057435808000015    0.9442564191999984    0.0557435808000014 O
   0.8057435808000015    0.9442564191999984    0.5557435808000013 O
   0.3192564191999984    0.3192564191999984    0.4307435808000014 O
   0.3192564191999984    0.3192564191999984    0.9307435808000014 O
   0.3192564191999984    0.8192564191999984    0.4307435808000014 O
   0.3192564191999984    0.8192564191999984    0.9307435808000014 O
   0.8192564191999984    0.3192564191999984    0.4307435808000014 O
   0.8192564191999984    0.3192564191999984    0.9307435808000014 O
   0.8192564191999984    0.8192564191999984    0.4307435808000014 O
   0.8192564191999984    0.8192564191999984    0.9307435808000014 O
   0.0692564191999984    0.0692564191999984    0.4307435808000014 O
   0.0692564191999984    0.0692564191999984    0.9307435808000014 O
   0.0692564191999984    0.5692564191999984    0.4307435808000014 O
   0.0692564191999984    0.5692564191999984    0.9307435808000014 O
   0.5692564191999984    0.0692564191999984    0.4307435808000014 O
   0.5692564191999984    0.0692564191999984    0.9307435808000014 O
   0.5692564191999984    0.5692564191999984    0.4307435808000014 O
   0.5692564191999984    0.5692564191999984    0.9307435808000014 O
   0.0692564191999984    0.3192564191999984    0.1807435808000015 O
   0.0692564191999984    0.3192564191999984    0.6807435808000015 O
   0.0692564191999984    0.8192564191999984    0.1807435808000015 O
   0.0692564191999984    0.8192564191999984    0.6807435808000015 O
   0.5692564191999984    0.3192564191999984    0.1807435808000015 O
   0.5692564191999984    0.3192564191999984    0.6807435808000015 O
   0.5692564191999984    0.8192564191999984    0.1807435808000015 O
   0.5692564191999984    0.8192564191999984    0.6807435808000015 O
   0.3192564191999984    0.0692564191999984    0.1807435808000015 O
   0.3192564191999984    0.0692564191999984    0.6807435808000015 O
   0.3192564191999984    0.5692564191999984    0.1807435808000015 O
   0.3192564191999984    0.5692564191999984    0.6807435808000015 O
   0.8192564191999984    0.0692564191999984    0.1807435808000015 O
   0.8192564191999984    0.0692564191999984    0.6807435808000015 O
   0.8192564191999984    0.5692564191999984    0.1807435808000015 O
   0.8192564191999984    0.5692564191999984    0.6807435808000015 O
   0.3192564191999984    0.4307435808000014    0.3192564191999984 O
   0.3192564191999984    0.4307435808000014    0.8192564191999984 O
   0.3192564191999984    0.9307435808000014    0.3192564191999984 O
   0.3192564191999984    0.9307435808000014    0.8192564191999984 O
   0.8192564191999984    0.4307435808000014    0.3192564191999984 O
   0.8192564191999984    0.4307435808000014    0.8192564191999984 O
   0.8192564191999984    0.9307435808000014    0.3192564191999984 O
   0.8192564191999984    0.9307435808000014    0.8192564191999984 O
   0.0692564191999984    0.1807435808000015    0.3192564191999984 O
   0.0692564191999984    0.1807435808000015    0.8192564191999984 O
   0.0692564191999984    0.6807435808000015    0.3192564191999984 O
   0.0692564191999984    0.6807435808000015    0.8192564191999984 O
   0.5692564191999984    0.1807435808000015    0.3192564191999984 O
   0.5692564191999984    0.1807435808000015    0.8192564191999984 O
   0.5692564191999984    0.6807435808000015    0.3192564191999984 O
   0.5692564191999984    0.6807435808000015    0.8192564191999984 O
   0.0692564191999984    0.4307435808000014    0.0692564191999984 O
   0.0692564191999984    0.4307435808000014    0.5692564191999984 O
   0.0692564191999984    0.9307435808000014    0.0692564191999984 O
   0.0692564191999984    0.9307435808000014    0.5692564191999984 O
   0.5692564191999984    0.4307435808000014    0.0692564191999984 O
   0.5692564191999984    0.4307435808000014    0.5692564191999984 O
   0.5692564191999984    0.9307435808000014    0.0692564191999984 O
   0.5692564191999984    0.9307435808000014    0.5692564191999984 O
   0.3192564191999984    0.1807435808000015    0.0692564191999984 O
   0.3192564191999984    0.1807435808000015    0.5692564191999984 O
   0.3192564191999984    0.6807435808000015    0.0692564191999984 O
   0.3192564191999984    0.6807435808000015    0.5692564191999984 O
   0.8192564191999984    0.1807435808000015    0.0692564191999984 O
   0.8192564191999984    0.1807435808000015    0.5692564191999984 O
   0.8192564191999984    0.6807435808000015    0.0692564191999984 O
   0.8192564191999984    0.6807435808000015    0.5692564191999984 O
   0.1942564191999985    0.1942564191999985    0.1942564191999985 O
   0.1942564191999985    0.1942564191999985    0.6942564191999985 O
   0.1942564191999985    0.6942564191999985    0.1942564191999985 O
   0.1942564191999985    0.6942564191999985    0.6942564191999985 O
   0.6942564191999985    0.1942564191999985    0.1942564191999985 O
   0.6942564191999985    0.1942564191999985    0.6942564191999985 O
   0.6942564191999985    0.6942564191999985    0.1942564191999985 O
   0.6942564191999985    0.6942564191999985    0.6942564191999985 O
   0.4442564191999985    0.4442564191999985    0.1942564191999985 O
   0.4442564191999985    0.4442564191999985    0.6942564191999985 O
   0.4442564191999985    0.9442564191999984    0.1942564191999985 O
   0.4442564191999985    0.9442564191999984    0.6942564191999985 O
   0.9442564191999984    0.4442564191999985    0.1942564191999985 O
   0.9442564191999984    0.4442564191999985    0.6942564191999985 O
   0.9442564191999984    0.9442564191999984    0.1942564191999985 O
   0.9442564191999984    0.9442564191999984    0.6942564191999985 O
   0.4442564191999985    0.1942564191999985    0.4442564191999985 O
   0.4442564191999985    0.1942564191999985    0.9442564191999984 O
   0.4442564191999985    0.6942564191999985    0.4442564191999985 O
   0.4442564191999985    0.6942564191999985    0.9442564191999984 O
   0.9442564191999984    0.1942564191999985    0.4442564191999985 O
   0.9442564191999984    0.1942564191999985    0.9442564191999984 O
   0.9442564191999984    0.6942564191999985    0.4442564191999985 O
   0.9442564191999984    0.6942564191999985    0.9442564191999984 O
   0.1942564191999985    0.4442564191999985    0.4442564191999985 O
   0.1942564191999985    0.4442564191999985    0.9442564191999984 O
   0.1942564191999985    0.9442564191999984    0.4442564191999985 O
   0.1942564191999985    0.9442564191999984    0.9442564191999984 O
   0.6942564191999985    0.4442564191999985    0.4442564191999985 O
   0.6942564191999985    0.4442564191999985    0.9442564191999984 O
   0.6942564191999985    0.9442564191999984    0.4442564191999985 O
   0.6942564191999985    0.9442564191999984    0.9442564191999984 O
   0.4307435808000014    0.3192564191999984    0.3192564191999984 O
   0.4307435808000014    0.3192564191999984    0.8192564191999984 O
   0.4307435808000014    0.8192564191999984    0.3192564191999984 O
   0.4307435808000014    0.8192564191999984    0.8192564191999984 O
   0.9307435808000014    0.3192564191999984    0.3192564191999984 O
   0.9307435808000014    0.3192564191999984    0.8192564191999984 O
   0.9307435808000014    0.8192564191999984    0.3192564191999984 O
   0.9307435808000014    0.8192564191999984    0.8192564191999984 O
   0.1807435808000015    0.0692564191999984    0.3192564191999984 O
   0.1807435808000015    0.0692564191999984    0.8192564191999984 O
   0.1807435808000015    0.5692564191999984    0.3192564191999984 O
   0.1807435808000015    0.5692564191999984    0.8192564191999984 O
   0.6807435808000015    0.0692564191999984    0.3192564191999984 O
   0.6807435808000015    0.0692564191999984    0.8192564191999984 O
   0.6807435808000015    0.5692564191999984    0.3192564191999984 O
   0.6807435808000015    0.5692564191999984    0.8192564191999984 O
   0.1807435808000015    0.3192564191999984    0.0692564191999984 O
   0.1807435808000015    0.3192564191999984    0.5692564191999984 O